c colouring generated by benchmark framework
p edge 450 16750
v 1 2
v 2 19
v 3 23
v 4 11
v 5 2
v 6 2
v 7 10
v 8 20
v 9 14
v 10 7
v 11 13
v 12 10
v 13 10
v 14 1
v 15 12
v 16 19
v 17 19
v 18 20
v 19 16
v 20 13
v 21 12
v 22 21
v 23 2
v 24 4
v 25 5
v 26 14
v 27 2
v 28 8
v 29 18
v 30 16
v 31 16
v 32 8
v 33 24
v 34 17
v 35 13
v 36 21
v 37 11
v 38 13
v 39 4
v 40 8
v 41 23
v 42 15
v 43 7
v 44 6
v 45 19
v 46 6
v 47 19
v 48 6
v 49 17
v 50 13
v 51 1
v 52 20
v 53 23
v 54 11
v 55 20
v 56 4
v 57 7
v 58 15
v 59 15
v 60 17
v 61 6
v 62 5
v 63 18
v 64 1
v 65 15
v 66 13
v 67 0
v 68 7
v 69 18
v 70 11
v 71 12
v 72 9
v 73 19
v 74 5
v 75 18
v 76 16
v 77 15
v 78 0
v 79 21
v 80 0
v 81 8
v 82 8
v 83 4
v 84 22
v 85 14
v 86 13
v 87 22
v 88 19
v 89 24
v 90 6
v 91 9
v 92 3
v 93 16
v 94 16
v 95 6
v 96 1
v 97 21
v 98 1
v 99 3
v 100 14
v 101 13
v 102 22
v 103 10
v 104 22
v 105 1
v 106 22
v 107 11
v 108 10
v 109 24
v 110 24
v 111 7
v 112 12
v 113 1
v 114 4
v 115 15
v 116 15
v 117 10
v 118 5
v 119 20
v 120 21
v 121 23
v 122 7
v 123 12
v 124 19
v 125 1
v 126 1
v 127 20
v 128 3
v 129 4
v 130 1
v 131 10
v 132 0
v 133 0
v 134 9
v 135 15
v 136 7
v 137 17
v 138 14
v 139 5
v 140 5
v 141 8
v 142 3
v 143 20
v 144 4
v 145 13
v 146 8
v 147 22
v 148 15
v 149 13
v 150 6
v 151 14
v 152 17
v 153 18
v 154 0
v 155 5
v 156 7
v 157 9
v 158 13
v 159 3
v 160 10
v 161 8
v 162 17
v 163 5
v 164 3
v 165 10
v 166 13
v 167 4
v 168 0
v 169 19
v 170 13
v 171 13
v 172 14
v 173 22
v 174 18
v 175 23
v 176 2
v 177 24
v 178 11
v 179 19
v 180 20
v 181 5
v 182 2
v 183 0
v 184 18
v 185 4
v 186 10
v 187 11
v 188 16
v 189 20
v 190 11
v 191 12
v 192 9
v 193 7
v 194 3
v 195 16
v 196 9
v 197 7
v 198 21
v 199 11
v 200 18
v 201 2
v 202 0
v 203 14
v 204 4
v 205 5
v 206 12
v 207 22
v 208 12
v 209 23
v 210 8
v 211 0
v 212 21
v 213 3
v 214 15
v 215 13
v 216 5
v 217 11
v 218 7
v 219 18
v 220 1
v 221 23
v 222 10
v 223 4
v 224 3
v 225 19
v 226 14
v 227 19
v 228 16
v 229 2
v 230 2
v 231 4
v 232 13
v 233 9
v 234 20
v 235 22
v 236 11
v 237 10
v 238 19
v 239 4
v 240 21
v 241 20
v 242 7
v 243 6
v 244 14
v 245 14
v 246 16
v 247 5
v 248 10
v 249 13
v 250 22
v 251 2
v 252 8
v 253 19
v 254 5
v 255 0
v 256 6
v 257 22
v 258 16
v 259 7
v 260 17
v 261 12
v 262 11
v 263 24
v 264 12
v 265 15
v 266 8
v 267 9
v 268 18
v 269 3
v 270 4
v 271 24
v 272 2
v 273 14
v 274 24
v 275 9
v 276 24
v 277 22
v 278 18
v 279 23
v 280 8
v 281 1
v 282 7
v 283 5
v 284 6
v 285 11
v 286 7
v 287 7
v 288 18
v 289 2
v 290 5
v 291 16
v 292 14
v 293 2
v 294 17
v 295 10
v 296 12
v 297 2
v 298 5
v 299 6
v 300 21
v 301 12
v 302 7
v 303 19
v 304 21
v 305 18
v 306 2
v 307 18
v 308 2
v 309 4
v 310 15
v 311 12
v 312 17
v 313 3
v 314 6
v 315 19
v 316 6
v 317 8
v 318 11
v 319 11
v 320 12
v 321 12
v 322 21
v 323 1
v 324 20
v 325 1
v 326 0
v 327 20
v 328 6
v 329 13
v 330 19
v 331 0
v 332 17
v 333 18
v 334 17
v 335 15
v 336 4
v 337 11
v 338 17
v 339 9
v 340 3
v 341 13
v 342 16
v 343 10
v 344 13
v 345 6
v 346 16
v 347 2
v 348 21
v 349 11
v 350 14
v 351 2
v 352 11
v 353 3
v 354 4
v 355 18
v 356 8
v 357 11
v 358 17
v 359 9
v 360 12
v 361 21
v 362 11
v 363 24
v 364 19
v 365 3
v 366 19
v 367 11
v 368 5
v 369 3
v 370 9
v 371 12
v 372 9
v 373 4
v 374 6
v 375 11
v 376 0
v 377 17
v 378 6
v 379 10
v 380 1
v 381 11
v 382 16
v 383 20
v 384 3
v 385 15
v 386 12
v 387 9
v 388 8
v 389 5
v 390 15
v 391 18
v 392 8
v 393 6
v 394 23
v 395 22
v 396 21
v 397 16
v 398 7
v 399 17
v 400 11
v 401 21
v 402 14
v 403 22
v 404 6
v 405 15
v 406 2
v 407 17
v 408 12
v 409 16
v 410 3
v 411 1
v 412 0
v 413 9
v 414 0
v 415 2
v 416 23
v 417 10
v 418 21
v 419 9
v 420 21
v 421 24
v 422 7
v 423 14
v 424 5
v 425 1
v 426 4
v 427 0
v 428 10
v 429 21
v 430 2
v 431 18
v 432 9
v 433 8
v 434 17
v 435 4
v 436 2
v 437 8
v 438 0
v 439 15
v 440 6
v 441 2
v 442 8
v 443 10
v 444 18
v 445 2
v 446 5
v 447 9
v 448 0
v 449 20
v 450 20
